Academic license - for non-commercial use only
Gurobi Optimizer version 9.0.3 build v9.0.3rc0 (mac64)
Optimize a model with 383414 rows, 360720 columns and 2101770 nonzeros
Model fingerprint: 0xf8c728a1
Variable types: 0 continuous, 360720 integer (360720 binary)
Coefficient statistics:
  Matrix range     [1e+00, 1e+00]
  Objective range  [1e+01, 1e+05]
  Bounds range     [1e+00, 1e+00]
  RHS range        [1e+00, 1e+03]
Presolve removed 10030 rows and 30 columns (presolve time = 5s) ...
Presolve added 0 rows and 9970 columns
Presolve removed 30 rows and 0 columns
Presolve time: 6.65s
Presolved: 383384 rows, 370690 columns, 1531710 nonzeros
Variable types: 0 continuous, 370690 integer (370690 binary)
Found heuristic solution: objective 1014813.0000

Concurrent LP optimizer: dual simplex and barrier
Showing barrier log only...

Root barrier log...

Ordering time: 0.10s

Barrier statistics:
 Dense cols : 360
 AA' NZ     : 1.188e+06
 Factor NZ  : 7.430e+06 (roughly 400 MBytes of memory)
 Factor Ops : 2.001e+09 (less than 1 second per iteration)
 Threads    : 3

                  Objective                Residual
Iter       Primal          Dual         Primal    Dual     Compl     Time
   0   5.20205926e+08 -7.82569775e+08  4.05e+02 2.96e+01  3.26e+04    13s
   1   2.32129659e+06 -8.81162158e+08  3.40e+00 3.24e+03  9.80e+02    14s
   2   1.39830322e+06 -1.09730938e+08  9.19e-01 2.32e+02  1.18e+02    14s
   3   1.08475835e+06 -7.42090002e+06  8.83e-02 4.31e+01  7.86e+00    14s
   4   9.95948437e+05 -2.93640759e+05  1.48e-02 4.35e+00  1.16e+00    15s
   5   9.40524313e+05  3.44820554e+05  1.04e-02 1.43e+00  5.34e-01    16s
   6   9.06952176e+05  5.36905473e+05  8.48e-03 7.26e-01  3.31e-01    16s
   7   8.88517145e+05  5.90899031e+05  7.52e-03 5.29e-01  2.66e-01    17s
   8   8.72614233e+05  6.36171622e+05  6.72e-03 3.56e-01  2.11e-01    17s
   9   8.59813834e+05  6.59905669e+05  6.08e-03 2.76e-01  1.78e-01    18s
  10   8.45837503e+05  6.70605893e+05  5.48e-03 2.38e-01  1.56e-01    18s
  11   8.25661136e+05  6.95999833e+05  4.62e-03 1.32e-01  1.15e-01    19s
  12   8.13614183e+05  7.07721498e+05  4.05e-03 8.56e-02  9.41e-02    19s
  13   8.08983072e+05  7.13374052e+05  3.84e-03 6.55e-02  8.49e-02    20s
  14   7.97942192e+05  7.16828678e+05  3.36e-03 5.15e-02  7.20e-02    21s
  15   7.87293561e+05  7.21737040e+05  2.90e-03 3.38e-02  5.81e-02    21s
  16   7.78227747e+05  7.24789913e+05  2.50e-03 2.21e-02  4.74e-02    22s
  17   7.66656936e+05  7.26640677e+05  1.96e-03 1.54e-02  3.54e-02    22s
  18   7.60727451e+05  7.28003452e+05  1.67e-03 1.08e-02  2.90e-02    23s
  19   7.51972362e+05  7.29095323e+05  1.25e-03 7.90e-03  2.02e-02    23s
  20   7.46335688e+05  7.29690085e+05  9.42e-04 6.14e-03  1.47e-02    24s
  21   7.44057630e+05  7.30095951e+05  8.02e-04 4.99e-03  1.23e-02    24s
  22   7.41535213e+05  7.30532054e+05  6.43e-04 3.82e-03  9.72e-03    25s
  23   7.39608767e+05  7.30892093e+05  5.15e-04 2.82e-03  7.70e-03    25s
  24   7.38348530e+05  7.31182839e+05  4.39e-04 2.56e-03  6.33e-03    26s
  25   7.37382324e+05  7.31330955e+05  3.74e-04 2.19e-03  5.34e-03    26s
  26   7.36265586e+05  7.31475188e+05  2.99e-04 2.19e-03  4.23e-03    27s
  27   7.35349961e+05  7.31677569e+05  2.32e-04 2.07e-03  3.24e-03    27s
  28   7.34585928e+05  7.31826716e+05  1.84e-04 1.55e-03  2.43e-03    28s
  29   7.34136728e+05  7.31931850e+05  1.52e-04 1.09e-03  1.94e-03    28s
  30   7.33818121e+05  7.31985253e+05  1.30e-04 8.57e-04  1.61e-03    29s
  31   7.33387096e+05  7.32019310e+05  9.91e-05 6.98e-04  1.20e-03    29s
  32   7.33193974e+05  7.32071044e+05  8.48e-05 5.05e-04  9.87e-04    30s
  33   7.33041843e+05  7.32103630e+05  7.35e-05 4.08e-04  8.24e-04    30s
  34   7.32884023e+05  7.32121987e+05  5.97e-05 3.43e-04  6.70e-04    30s
  35   7.32760825e+05  7.32137953e+05  4.93e-05 2.76e-04  5.47e-04    31s
  36   7.32683070e+05  7.32162633e+05  4.36e-05 1.74e-04  4.57e-04    31s
  37   7.32600316e+05  7.32174134e+05  3.70e-05 1.43e-04  3.74e-04    32s
  38   7.32557661e+05  7.32184957e+05  3.32e-05 1.05e-04  3.26e-04    32s
  39   7.32487874e+05  7.32189118e+05  2.73e-05 9.30e-05  2.62e-04    33s
  40   7.32436807e+05  7.32192941e+05  2.28e-05 7.76e-05  2.13e-04    33s
  41   7.32391478e+05  7.32199859e+05  1.86e-05 5.71e-05  1.68e-04    34s
  42   7.32359253e+05  7.32204920e+05  1.54e-05 4.20e-05  1.35e-04    34s
  43   7.32340759e+05  7.32206108e+05  1.33e-05 3.70e-05  1.18e-04    35s
  44   7.32316716e+05  7.32208096e+05  1.10e-05 2.85e-05  9.48e-05    35s
  45   7.32294047e+05  7.32209755e+05  8.74e-06 2.13e-05  7.35e-05    36s
  46   7.32275393e+05  7.32210901e+05  6.74e-06 1.69e-05  5.63e-05    36s
  47   7.32268806e+05  7.32211898e+05  6.01e-06 1.37e-05  4.96e-05    37s
  48   7.32261854e+05  7.32212968e+05  5.22e-06 1.00e-05  4.26e-05    37s
  49   7.32244427e+05  7.32213391e+05  3.45e-06 8.73e-06  2.70e-05    38s
  50   7.32241154e+05  7.32214202e+05  3.12e-06 6.72e-06  2.34e-05    38s
  51   7.32236327e+05  7.32214719e+05  2.59e-06 5.15e-06  1.88e-05    39s
  52   7.32231582e+05  7.32215136e+05  1.96e-06 4.00e-06  1.43e-05    39s
  53   7.32229029e+05  7.32215345e+05  1.64e-06 3.45e-06  1.19e-05    39s
  54   7.32225316e+05  7.32215610e+05  1.20e-06 2.77e-06  8.42e-06    40s
  55   7.32224283e+05  7.32215800e+05  1.07e-06 2.30e-06  7.35e-06    40s
  56   7.32222667e+05  7.32216116e+05  8.41e-07 1.70e-06  5.68e-06    41s
  57   7.32221325e+05  7.32216218e+05  6.53e-07 1.46e-06  4.43e-06    41s
  58   7.32220894e+05  7.32216424e+05  5.97e-07 9.74e-07  3.87e-06    42s
  59   7.32219630e+05  7.32216582e+05  4.14e-07 6.83e-07  2.63e-06    42s
  60   7.32219108e+05  7.32216639e+05  3.38e-07 5.53e-07  2.13e-06    43s
  61   7.32218312e+05  7.32216698e+05  2.16e-07 4.43e-07  1.40e-06    43s
  62   7.32217650e+05  7.32216869e+05  1.12e-07 1.06e-07  6.74e-07    44s
  63   7.32217587e+05  7.32216881e+05  1.03e-07 8.93e-08  6.09e-07    44s
  64   7.32217260e+05  7.32216906e+05  5.01e-08 4.06e-08  3.06e-07    45s
  65   7.32217173e+05  7.32216917e+05  3.63e-08 6.83e-08  2.20e-07    45s
  66   7.32217154e+05  7.32216923e+05  3.32e-08 5.80e-08  1.98e-07    45s
  67   7.32217088e+05  7.32216927e+05  2.28e-08 6.24e-08  1.39e-07    46s
  68   7.32217077e+05  7.32216931e+05  2.12e-08 6.31e-08  1.26e-07    46s
  69   7.32217045e+05  7.32216935e+05  1.63e-08 3.63e-08  9.51e-08    46s
  70   7.32216995e+05  7.32216936e+05  8.08e-09 1.39e-08  5.05e-08    47s
  71   7.32216989e+05  7.32216937e+05  7.24e-09 3.57e-08  4.52e-08    47s
  72   7.32216988e+05  7.32216937e+05  1.25e-08 3.56e-08  4.41e-08    48s
  73   7.32216983e+05  7.32216938e+05  1.11e-08 3.64e-08  3.86e-08    48s
  74   7.32216983e+05  7.32216938e+05  1.32e-08 3.68e-08  3.85e-08    49s

Barrier solved model in 74 iterations and 48.93 seconds
Optimal objective 7.32216983e+05


Root crossover log...

   47535 DPushes remaining with DInf 0.0000000e+00                49s
    1183 DPushes remaining with DInf 0.0000000e+00                50s
       0 DPushes remaining with DInf 0.0000000e+00                53s

    3862 PPushes remaining with PInf 0.0000000e+00                53s
       0 PPushes remaining with PInf 2.1615769e-06                54s

  Push phase complete: Pinf 2.1615769e-06, Dinf 6.1969816e-09     54s


Root simplex log...

Iteration    Objective       Primal Inf.    Dual Inf.      Time
   13471    7.3221694e+05   2.161577e-06   0.000000e+00     54s
   13472    7.3221694e+05   0.000000e+00   0.000000e+00     54s

Solved with barrier

Root relaxation: objective 7.322169e+05, 13472 iterations, 42.78 seconds
Total elapsed time = 58.16s

    Nodes    |    Current Node    |     Objective Bounds      |     Work
 Expl Unexpl |  Obj  Depth IntInf | Incumbent    BestBd   Gap | It/Node Time

     0     0 732216.943    0 50169 1014813.00 732216.943  27.8%     -   60s
H    0     0                    799937.00000 732216.943  8.47%     -   67s
     0     0 732218.172    0 50187 799937.000 732218.172  8.47%     -  104s
H    0     0                    797227.00000 732218.172  8.15%     -  135s
     0     0 732218.920    0 50171 797227.000 732218.920  8.15%     -  140s
     0     0 732219.106    0 50169 797227.000 732219.106  8.15%     -  145s
     0     0 732219.136    0 50169 797227.000 732219.136  8.15%     -  147s
     0     0 732220.440    0 50171 797227.000 732220.440  8.15%     -  176s
     0     0 732220.639    0 50171 797227.000 732220.639  8.15%     -  184s
     0     0 732220.674    0 50171 797227.000 732220.674  8.15%     -  189s
     0     0 732220.683    0 50171 797227.000 732220.683  8.15%     -  240s
     0     0 732220.686    0 50173 797227.000 732220.686  8.15%     -  245s
     0     0 732220.686    0 50173 797227.000 732220.686  8.15%     -  282s

Cutting planes:
  Gomory: 8

Explored 1 nodes (26585 simplex iterations) in 300.11 seconds
Thread count was 8 (of 8 available processors)

Solution count 3: 797227 799937 1.01481e+06 

Time limit reached
Best objective 7.972270000000e+05, best bound 7.322206863042e+05, gap 8.1541%

User-callback calls 34807, time in user-callback 0.28 sec
Solution written to /Users/mdeboute/Desktop/Etudes/Master/M2/S9/GOPP/Projet/multi-period-flp/solution/instSingle_I30_J1000_T12_0_result.txt
